num_features = 24;
num_usage_limits = 3;
num_plans = 4;
num_addons = 0;

features = ["unlimitedTracking","unlimitedProjects","unlimitedReports","apps","integrations","emailSupport","chatSupport","api","privateTimeEntries","lockTimesheets","requiredFields","timeRounding","timeAudit","brandedReports","targetsAndReminders","addTimeForOthers","projectTemplates","alerts","bulkEditReports","hidePages","automaticLock","singleSignOn","customSubdomain","controlAccounts"];
usage_limits = ["trackingLimit","projectsLimit","reportsLimit"];
plans = ["FREE","PLUS","PREMIUM","ENTERPRISE"];
addons = [];

plans_prices = [0,9.99,29.99,9.99];
addons_prices = [];

linked_features = array2d(USAGE_LIMITS, FEATURES, [
    % trackingLimit
    1,0,0,0,0,0,0,0,0,0,0,0,0,0,0,0,0,0,0,0,0,0,0,0,
    % projectsLimit
    0,1,0,0,0,0,0,0,0,0,0,0,0,0,0,0,0,0,0,0,0,0,0,0,
    % reportsLimit
    0,0,1,0,0,0,0,0,0,0,0,0,0,0,0,0,0,0,0,0,0,0,0,0
]);

plans_features = array2d(PLANS, FEATURES, [
    % FREE
    1,1,1,1,1,1,1,1,0,0,0,0,0,0,0,0,0,0,0,0,0,0,0,0,
    % PLUS
    1,1,1,1,1,1,1,1,1,1,1,1,1,1,1,0,0,0,0,0,0,0,0,0,
    % PREMIUM
    1,1,1,1,1,1,1,1,1,1,1,1,1,1,1,1,1,1,1,1,1,0,0,0,
    % ENTERPRISE
    1,1,1,1,1,1,1,1,1,1,1,1,1,1,1,1,1,1,1,1,1,1,1,1
]);
plans_usage_limits = array2d(PLANS, USAGE_LIMITS, [
    % FREE
    1000000000000,1000000000000,1000000000000,
    % PLUS
    1000000000000,1000000000000,1000000000000,
    % PREMIUM
    1000000000000,1000000000000,1000000000000,
    % ENTERPRISE
    1000000000000,1000000000000,1000000000000
]);

addons_features = array2d(ADDONS, FEATURES, [
]);
addons_usage_limits = array2d(ADDONS, USAGE_LIMITS, [
]);
addons_usage_limits_extensions = array2d(ADDONS, USAGE_LIMITS, [
]);
addons_available_for = array2d(ADDONS, PLANS, [
]);
addons_depends_on = array2d(ADDONS, ADDONS, [
]);
